x = 16;
y = 19;
c = 85;
n = 45;

p = [31  87  21  98  92  54  40  15  16  48  42  84  41  92  81  31  77  73  79  40  77  47  78  41  49  74  47  21  12  77  14  75  32  58  69  61  42  76  96  81  94  41  55  15  83];
w = [2  10  1  4  1  1  8  5  6  4  10  6  7  2  4  2  1  10  9  2  7  5  1  10  9  9  10  7  5  2  2  8  6  1  2  1  8  2  1  2  5  10  4  7  2];
s = [15  12  15  9  1  2  16  10  4  4  2  1  2  16  15  7  14  10  13  12  8  14  15  10  12  2  5  7  10  16  14  16  11  11  13  1  2  3  7  10  16  12  11  10  4];
